c Sudoku solution
p cnf 729 0
146 0
219 0
223 0
265 0
291 0
351 0
368 0
386 0
236 0
411 0
456 0
492 0
562 0
585 0
597 0
629 0
725 0
737 0
758 0
821 0
131 0
842 0
893 0
914 0
963 0
713 0
988 0
278 0
698 0
174 0
794 0
996 0
766 0
816 0
922 0
939 0
838 0
518 0
448 0
435 0
526 0
676 0
128 0
661 0
571 0
781 0
772 0
749 0
941 0
645 0
559 0
169 0
195 0
399 0
315 0
332 0
117 0
324 0
612 0
427 0
464 0
543 0
657 0
684 0
534 0
633 0
347 0
153 0
252 0
244 0
182 0
287 0
373 0
854 0
867 0
955 0
875 0
977 0
889 0
479 0
483 0
